NAME : block_21.529307.tour
COMMENT : Length = 529307
COMMENT : Found by LKH-3 [Keld Helsgaun] Wed Apr 22 15:46:40 2026
TYPE : TOUR
DIMENSION : 152
TOUR_SECTION
3
4
11
23
22
35
49
63
78
93
108
122
135
146
147
136
123
109
94
79
64
50
36
37
24
12
5
6
13
25
38
52
51
65
80
95
110
124
137
138
125
111
96
81
66
67
53
39
26
14
27
40
54
68
69
84
99
98
83
82
97
112
113
127
126
2
152
1
114
100
115
101
86
85
70
71
56
55
41
42
28
15
16
29
43
57
72
87
102
116
129
128
139
140
148
149
141
130
117
103
88
73
58
44
30
17
18
31
45
59
74
89
104
118
131
142
150
151
143
132
119
105
90
75
60
46
32
19
7
8
20
33
47
61
76
91
106
120
133
144
145
134
121
107
92
77
62
48
34
21
9
10
-1
EOF
